NAME : BIER127A.131974.tour
COMMENT : Cost = 0_131974
COMMENT : Found by LKH [Keld Helsgaun] Sun Sep 17 16:52:42 2017
TYPE : TOUR
DIMENSION : 127
TOUR_SECTION
1
7
120
3
90
116
60
61
58
64
100
10
13
50
115
52
124
56
5
121
57
44
103
45
54
51
2
37
36
35
40
42
39
26
31
27
79
76
78
117
84
81
126
82
83
32
29
28
122
33
25
38
34
43
30
41
14
12
20
108
15
106
6
24
23
19
4
22
17
21
72
8
73
68
70
71
110
109
96
88
87
86
85
104
125
89
92
99
65
113
66
55
47
49
118
48
53
46
94
112
111
107
127
93
95
123
97
98
101
102
63
119
69
75
80
77
18
74
67
59
62
91
9
11
114
105
16
-1
EOF
